Version identifier: 22.1.1.0 | 2022-11-28 | 9160aff4d
CPXPARAM_ClockType                               1
CPXPARAM_Read_DataCheck                          1
CPXPARAM_Threads                                 1
CPXPARAM_TimeLimit                               7200
CPXPARAM_MIP_Tolerances_AbsMIPGap                0
CPXPARAM_MIP_Tolerances_MIPGap                   0
CPXPARAM_MIP_Tolerances_Integrality              0
Tried aggregator 3 times.
MIP Presolve eliminated 8728 rows and 270 columns.
MIP Presolve modified 10689 coefficients.
Aggregator did 364 substitutions.
Reduced MIP has 962659 rows, 418906 columns, and 2731599 nonzeros.
Reduced MIP has 418906 binaries, 0 generals, 0 SOSs, and 0 indicators.
Presolve time = 9.09 sec. (4290.79 ticks)
Elapsed time = 38.53 sec. (10000.47 ticks) for 21% of probing (49869 vars fixed)
Probing fixed 49904 vars, tightened 0 bounds.
Probing changed sense of 379 constraints.
Probing time = 83.43 sec. (19576.23 ticks)
Tried aggregator 7 times.
MIP Presolve eliminated 169518 rows and 61927 columns.
MIP Presolve modified 2268 coefficients.
Aggregator did 12546 substitutions.
Reduced MIP has 780595 rows, 344433 columns, and 2237328 nonzeros.
Reduced MIP has 344433 binaries, 0 generals, 0 SOSs, and 0 indicators.
Presolve time = 20.91 sec. (9190.06 ticks)
Probing time = 0.36 sec. (86.01 ticks)
Tried aggregator 1 time.
Detecting symmetries...
MIP Presolve eliminated 618 rows and 0 columns.
Reduced MIP has 779977 rows, 344433 columns, and 2235474 nonzeros.
Reduced MIP has 344433 binaries, 0 generals, 0 SOSs, and 0 indicators.
Presolve time = 7.39 sec. (7281.93 ticks)
Probing time = 0.33 sec. (84.93 ticks)
Clique table members: 1258141.
MIP emphasis: balance optimality and feasibility.
MIP search method: dynamic search.
Parallel mode: none, using 1 thread.
Root relaxation solution time = 30.29 sec. (20948.47 ticks)

        Nodes                                         Cuts/
   Node  Left     Objective  IInf  Best Integer    Best Bound    ItCnt     Gap

      0     0    69467.1667 127391                  69467.1667    92362         
      0     0    67836.7083 126025                 Cuts: 10000   118489         
      0     0    67436.6458 126266                 Cuts: 10000   127125         
      0     0    64999.2051 132155                 Cuts: 10000   182987         
      0     0    62336.7874 136710                 Cuts: 10000   238785         
